\ Model mip1_copy
\ LP format - for model browsing. Use MPS format to capture full model detail.
Minimize
 
Subject To
 R16: - o_0 + v2_0 = 0
 R34: - o_0 + v2_0 = -2
Bounds
 o_0 free
 v2_0 free
Generals
 o_0 v2_0
End
